NAME camouflage_srl_ilp
* Max problem is converted into Min one
ROWS
 N  OBJ
 L  constraint1_1969
 L  constraint1_1964
 L  constraint1_1962
 L  constraint1_1967
 L  constraint1_1961
 L  constraint1_1963
 L  constraint1_1965
 L  constraint1_1968
 L  constraint1_1966
 L  constraint1_2080
 L  constraint1_2691
 L  constraint1_2692
 L  constraint1_2690
 L  constraint1_4551
 L  constraint1_4550
 L  constraint1_5550
 L  constraint1_1790
 L  constraint1_2280
 L  constraint1_5010
 L  constraint1_3934
 L  constraint1_3933
 L  constraint1_3932
 L  constraint1_3931
 L  constraint1_3930
 L  constraint1_3935
 L  constraint1_3936
 L  constraint1_6090
 L  constraint1_4630
 L  constraint1_2750
 L  constraint1_7380
 L  constraint1_4810
 L  constraint1_660
 L  constraint1_5334
 L  constraint1_5331
 L  constraint1_5332
 L  constraint1_5330
 L  constraint1_5335
 L  constraint1_5333
 L  constraint1_5336
 L  constraint2_1960
 L  constraint2_1961
 L  constraint2_1962
 L  constraint2_1963
 L  constraint2_2080
 L  constraint2_2081
 L  constraint2_2082
 L  constraint2_2083
 L  constraint2_2690
 L  constraint2_2691
 L  constraint2_2692
 L  constraint2_2693
 L  constraint2_3950
 L  constraint2_3951
 L  constraint2_3952
 L  constraint2_3953
 L  constraint2_840
 L  constraint2_841
 L  constraint2_842
 L  constraint2_843
 L  constraint2_3260
 L  constraint2_3261
 L  constraint2_3262
 L  constraint2_3263
 L  constraint2_4550
 L  constraint2_4551
 L  constraint2_4552
 L  constraint2_4553
 L  constraint2_5550
 L  constraint2_5551
 L  constraint2_5552
 L  constraint2_5553
 L  constraint2_1790
 L  constraint2_1791
 L  constraint2_1792
 L  constraint2_1793
 L  constraint2_920
 L  constraint2_921
 L  constraint2_922
 L  constraint2_923
 L  constraint2_2280
 L  constraint2_2281
 L  constraint2_2282
 L  constraint2_2283
 L  constraint2_5010
 L  constraint2_5011
 L  constraint2_5012
 L  constraint2_5013
 L  constraint2_3930
 L  constraint2_3931
 L  constraint2_3932
 L  constraint2_3933
 L  constraint2_6090
 L  constraint2_6091
 L  constraint2_6092
 L  constraint2_6093
 L  constraint2_4630
 L  constraint2_4631
 L  constraint2_4632
 L  constraint2_4633
 L  constraint2_2750
 L  constraint2_2751
 L  constraint2_2752
 L  constraint2_2753
 L  constraint2_7380
 L  constraint2_7381
 L  constraint2_7382
 L  constraint2_7383
 L  constraint2_4810
 L  constraint2_4811
 L  constraint2_4812
 L  constraint2_4813
 L  constraint2_660
 L  constraint2_661
 L  constraint2_662
 L  constraint2_663
 L  constraint2_5330
 L  constraint2_5331
 L  constraint2_5332
 L  constraint2_5333
COLUMNS
    MARKER    'MARKER'                 'INTORG'
    Z_196_9_0  OBJ       -5.8436204377892494e-02
    Z_196_9_0  constraint1_1969  1
    Z_196_9_0  constraint2_1960  1
    Z_196_9_1  OBJ       -1.0835185422214977e-01
    Z_196_9_1  constraint1_1969  1
    Z_196_9_1  constraint2_1961  1
    Z_196_9_2  OBJ       -3.3051186225758290e-02
    Z_196_9_2  constraint1_1969  1
    Z_196_9_2  constraint2_1962  1
    Z_196_9_3  OBJ       -1.8150340470134918e-02
    Z_196_9_3  constraint1_1969  1
    Z_196_9_3  constraint2_1963  1
    Z_196_9_4  OBJ       -6.8201041470406432e-01
    Z_196_9_4  constraint1_1969  1
    Z_196_4_0  OBJ       -5.0305212594629564e-04
    Z_196_4_0  constraint1_1964  1
    Z_196_4_0  constraint2_1960  1
    Z_196_4_1  OBJ       -1.7531866806943196e-02
    Z_196_4_1  constraint1_1964  1
    Z_196_4_1  constraint2_1961  1
    Z_196_4_2  OBJ       -2.1983250557401274e-01
    Z_196_4_2  constraint1_1964  1
    Z_196_4_2  constraint2_1962  1
    Z_196_4_3  OBJ       -3.2578242544875020e-02
    Z_196_4_3  constraint1_1964  1
    Z_196_4_3  constraint2_1963  1
    Z_196_4_4  OBJ       -6.2955433294822261e-01
    Z_196_4_4  constraint1_1964  1
    Z_196_2_0  OBJ       -1.0884120020480236e-02
    Z_196_2_0  constraint1_1962  1
    Z_196_2_0  constraint2_1960  1
    Z_196_2_1  OBJ       -3.0487623128350811e-02
    Z_196_2_1  constraint1_1962  1
    Z_196_2_1  constraint2_1961  1
    Z_196_2_2  OBJ       -2.0086812072345517e-01
    Z_196_2_2  constraint1_1962  1
    Z_196_2_2  constraint2_1962  1
    Z_196_2_3  OBJ       -1.4635375633729790e-02
    Z_196_2_3  constraint1_1962  1
    Z_196_2_3  constraint2_1963  1
    Z_196_2_4  OBJ       -6.4312476049398404e-01
    Z_196_2_4  constraint1_1962  1
    Z_196_7_0  OBJ       -1.9140243087551408e-02
    Z_196_7_0  constraint1_1967  1
    Z_196_7_0  constraint2_1960  1
    Z_196_7_1  OBJ       -2.2132518245245890e-02
    Z_196_7_1  constraint1_1967  1
    Z_196_7_1  constraint2_1961  1
    Z_196_7_2  OBJ       -2.3677181085155510e-02
    Z_196_7_2  constraint1_1967  1
    Z_196_7_2  constraint2_1962  1
    Z_196_7_3  OBJ       -3.1725477742517122e-03
    Z_196_7_3  constraint1_1967  1
    Z_196_7_3  constraint2_1963  1
    Z_196_7_4  OBJ       -8.3187750980779562e-01
    Z_196_7_4  constraint1_1967  1
    Z_196_1_0  OBJ       -1.2179010058511936e-03
    Z_196_1_0  constraint1_1961  1
    Z_196_1_0  constraint2_1960  1
    Z_196_1_1  OBJ       -9.8760218989465249e-04
    Z_196_1_1  constraint1_1961  1
    Z_196_1_1  constraint2_1961  1
    Z_196_1_2  OBJ       -2.4151916850859621e-02
    Z_196_1_2  constraint1_1961  1
    Z_196_1_2  constraint2_1962  1
    Z_196_1_3  OBJ       -4.5397145845324722e-03
    Z_196_1_3  constraint1_1961  1
    Z_196_1_3  constraint2_1963  1
    Z_196_1_4  OBJ       -8.6910286536886205e-01
    Z_196_1_4  constraint1_1961  1
    Z_196_3_0  OBJ       -7.9976837921226355e-04
    Z_196_3_0  constraint1_1963  1
    Z_196_3_0  constraint2_1960  1
    Z_196_3_1  OBJ       -1.3136995844668256e-03
    Z_196_3_1  constraint1_1963  1
    Z_196_3_1  constraint2_1961  1
    Z_196_3_2  OBJ       -5.0051473158645512e-02
    Z_196_3_2  constraint1_1963  1
    Z_196_3_2  constraint2_1962  1
    Z_196_3_3  OBJ       -7.6157403690472756e-03
    Z_196_3_3  constraint1_1963  1
    Z_196_3_3  constraint2_1963  1
    Z_196_3_4  OBJ       -8.4021931850862808e-01
    Z_196_3_4  constraint1_1963  1
    Z_196_5_0  OBJ       -4.6858760227512364e-01
    Z_196_5_0  constraint1_1965  1
    Z_196_5_0  constraint2_1960  1
    Z_196_5_1  OBJ       -2.2486696641998291e-01
    Z_196_5_1  constraint1_1965  1
    Z_196_5_1  constraint2_1961  1
    Z_196_5_2  OBJ       -5.8457087772009761e-03
    Z_196_5_2  constraint1_1965  1
    Z_196_5_2  constraint2_1962  1
    Z_196_5_3  OBJ       -9.3782753392377630e-03
    Z_196_5_3  constraint1_1965  1
    Z_196_5_3  constraint2_1963  1
    Z_196_5_4  OBJ       -1.9132144718845465e-01
    Z_196_5_4  constraint1_1965  1
    Z_196_8_0  OBJ       -1.6552240622078034e-02
    Z_196_8_0  constraint1_1968  1
    Z_196_8_0  constraint2_1960  1
    Z_196_8_1  OBJ       -5.1995584785116356e-01
    Z_196_8_1  constraint1_1968  1
    Z_196_8_1  constraint2_1961  1
    Z_196_8_2  OBJ       -1.9554459048717072e-02
    Z_196_8_2  constraint1_1968  1
    Z_196_8_2  constraint2_1962  1
    Z_196_8_3  OBJ       -7.3166454756066546e-04
    Z_196_8_3  constraint1_1968  1
    Z_196_8_3  constraint2_1963  1
    Z_196_8_4  OBJ       -3.4320578793048057e-01
    Z_196_8_4  constraint1_1968  1
    Z_196_6_0  OBJ       -7.9976837921226355e-04
    Z_196_6_0  constraint1_1966  1
    Z_196_6_0  constraint2_1960  1
    Z_196_6_1  OBJ       -1.3136995844668256e-03
    Z_196_6_1  constraint1_1966  1
    Z_196_6_1  constraint2_1961  1
    Z_196_6_2  OBJ       -5.0051473158645512e-02
    Z_196_6_2  constraint1_1966  1
    Z_196_6_2  constraint2_1962  1
    Z_196_6_3  OBJ       -7.6157403690472756e-03
    Z_196_6_3  constraint1_1966  1
    Z_196_6_3  constraint2_1963  1
    Z_196_6_4  OBJ       -8.4021931850862808e-01
    Z_196_6_4  constraint1_1966  1
    Z_208_0_0  OBJ       -3.0111107662175566e-04
    Z_208_0_0  constraint1_2080  1
    Z_208_0_0  constraint2_2080  1
    Z_208_0_1  OBJ       -5.5773300977106253e-03
    Z_208_0_1  constraint1_2080  1
    Z_208_0_1  constraint2_2081  1
    Z_208_0_2  OBJ       -7.3221416394542611e-03
    Z_208_0_2  constraint1_2080  1
    Z_208_0_2  constraint2_2082  1
    Z_208_0_3  OBJ       -8.3104362694445377e-01
    Z_208_0_3  constraint1_2080  1
    Z_208_0_3  constraint2_2083  1
    Z_208_0_4  OBJ       -5.5755790241759404e-02
    Z_208_0_4  constraint1_2080  1
    Z_269_1_0  OBJ       -7.4241759490742869e-03
    Z_269_1_0  constraint1_2691  1
    Z_269_1_0  constraint2_2690  1
    Z_269_1_1  OBJ       -7.0195633578785194e-02
    Z_269_1_1  constraint1_2691  1
    Z_269_1_1  constraint2_2691  1
    Z_269_1_2  OBJ       -3.4994165700916624e-02
    Z_269_1_2  constraint1_2691  1
    Z_269_1_2  constraint2_2692  1
    Z_269_1_3  OBJ       -1.1974165998336056e-01
    Z_269_1_3  constraint1_2691  1
    Z_269_1_3  constraint2_2693  1
    Z_269_1_4  OBJ       -6.6764436478786326e-01
    Z_269_1_4  constraint1_2691  1
    Z_269_2_0  OBJ       -1.0562121975359958e-04
    Z_269_2_0  constraint1_2692  1
    Z_269_2_0  constraint2_2690  1
    Z_269_2_1  OBJ       -1.8040096831364318e-03
    Z_269_2_1  constraint1_2692  1
    Z_269_2_1  constraint2_2691  1
    Z_269_2_2  OBJ       -4.9037377534710928e-02
    Z_269_2_2  constraint1_2692  1
    Z_269_2_2  constraint2_2692  1
    Z_269_2_3  OBJ       -8.3003694876046574e-01
    Z_269_2_3  constraint1_2692  1
    Z_269_2_3  constraint2_2693  1
    Z_269_2_4  OBJ       -1.9016042801933308e-02
    Z_269_2_4  constraint1_2692  1
    Z_269_0_0  OBJ       -1.0562121975359958e-04
    Z_269_0_0  constraint1_2690  1
    Z_269_0_0  constraint2_2690  1
    Z_269_0_1  OBJ       -1.8040096831364318e-03
    Z_269_0_1  constraint1_2690  1
    Z_269_0_1  constraint2_2691  1
    Z_269_0_2  OBJ       -4.9037377534710928e-02
    Z_269_0_2  constraint1_2690  1
    Z_269_0_2  constraint2_2692  1
    Z_269_0_3  OBJ       -8.3003694876046574e-01
    Z_269_0_3  constraint1_2690  1
    Z_269_0_3  constraint2_2693  1
    Z_269_0_4  OBJ       -1.9016042801933308e-02
    Z_269_0_4  constraint1_2690  1
    Z_455_1_0  OBJ       -2.6259418184700627e-03
    Z_455_1_0  constraint1_4551  1
    Z_455_1_0  constraint2_4550  1
    Z_455_1_1  OBJ       -1.1153160266886633e-03
    Z_455_1_1  constraint1_4551  1
    Z_455_1_1  constraint2_4551  1
    Z_455_1_2  OBJ       -7.2366139206371760e-01
    Z_455_1_2  constraint1_4551  1
    Z_455_1_2  constraint2_4552  1
    Z_455_1_3  OBJ       -3.3097375693295563e-03
    Z_455_1_3  constraint1_4551  1
    Z_455_1_3  constraint2_4553  1
    Z_455_1_4  OBJ       -1.6928761252179422e-01
    Z_455_1_4  constraint1_4551  1
    Z_455_0_0  OBJ       -2.6259418184700627e-03
    Z_455_0_0  constraint1_4550  1
    Z_455_0_0  constraint2_4550  1
    Z_455_0_1  OBJ       -1.1153160266886633e-03
    Z_455_0_1  constraint1_4550  1
    Z_455_0_1  constraint2_4551  1
    Z_455_0_2  OBJ       -7.2366139206371760e-01
    Z_455_0_2  constraint1_4550  1
    Z_455_0_2  constraint2_4552  1
    Z_455_0_3  OBJ       -3.3097375693295563e-03
    Z_455_0_3  constraint1_4550  1
    Z_455_0_3  constraint2_4553  1
    Z_455_0_4  OBJ       -1.6928761252179422e-01
    Z_455_0_4  constraint1_4550  1
    Z_555_0_0  OBJ       -5.7115216564108495e-04
    Z_555_0_0  constraint1_5550  1
    Z_555_0_0  constraint2_5550  1
    Z_555_0_1  OBJ       -1.6231996237560306e-03
    Z_555_0_1  constraint1_5550  1
    Z_555_0_1  constraint2_5551  1
    Z_555_0_2  OBJ       -6.2520983043662494e-03
    Z_555_0_2  constraint1_5550  1
    Z_555_0_2  constraint2_5552  1
    Z_555_0_3  OBJ       -1.3519329610098707e-01
    Z_555_0_3  constraint1_5550  1
    Z_555_0_3  constraint2_5553  1
    Z_555_0_4  OBJ       -7.5636025380524963e-01
    Z_555_0_4  constraint1_5550  1
    Z_179_0_0  OBJ       -1.0664054315532947e-04
    Z_179_0_0  constraint1_1790  1
    Z_179_0_0  constraint2_1790  1
    Z_179_0_1  OBJ       -7.6031101602872734e-04
    Z_179_0_1  constraint1_1790  1
    Z_179_0_1  constraint2_1791  1
    Z_179_0_2  OBJ       -5.7986482091016880e-02
    Z_179_0_2  constraint1_1790  1
    Z_179_0_2  constraint2_1792  1
    Z_179_0_3  OBJ       -8.1531905793599480e-01
    Z_179_0_3  constraint1_1790  1
    Z_179_0_3  constraint2_1793  1
    Z_179_0_4  OBJ       -2.5827508413804445e-02
    Z_179_0_4  constraint1_1790  1
    Z_228_0_0  OBJ       -1.0370951777508922e-01
    Z_228_0_0  constraint1_2280  1
    Z_228_0_0  constraint2_2280  1
    Z_228_0_1  OBJ       -5.7639428190865449e-01
    Z_228_0_1  constraint1_2280  1
    Z_228_0_1  constraint2_2281  1
    Z_228_0_2  OBJ       -4.3882662490290171e-03
    Z_228_0_2  constraint1_2280  1
    Z_228_0_2  constraint2_2282  1
    Z_228_0_3  OBJ       -1.0416752960080923e-01
    Z_228_0_3  constraint1_2280  1
    Z_228_0_3  constraint2_2283  1
    Z_228_0_4  OBJ       -1.1134040446641803e-01
    Z_228_0_4  constraint1_2280  1
    Z_501_0_0  OBJ       -4.3417311726646948e-04
    Z_501_0_0  constraint1_5010  1
    Z_501_0_0  constraint2_5010  1
    Z_501_0_1  OBJ       -2.1384910107473385e-03
    Z_501_0_1  constraint1_5010  1
    Z_501_0_1  constraint2_5011  1
    Z_501_0_2  OBJ       -5.7760229288005123e-02
    Z_501_0_2  constraint1_5010  1
    Z_501_0_2  constraint2_5012  1
    Z_501_0_3  OBJ       -8.0959977937817640e-01
    Z_501_0_3  constraint1_5010  1
    Z_501_0_3  constraint2_5013  1
    Z_501_0_4  OBJ       -3.0067327205804628e-02
    Z_501_0_4  constraint1_5010  1
    Z_393_4_0  OBJ       -1.3925444763983154e-04
    Z_393_4_0  constraint1_3934  1
    Z_393_4_0  constraint2_3930  1
    Z_393_4_1  OBJ       -3.6891994875722246e-03
    Z_393_4_1  constraint1_3934  1
    Z_393_4_1  constraint2_3931  1
    Z_393_4_2  OBJ       -8.1290164510526741e-01
    Z_393_4_2  constraint1_3934  1
    Z_393_4_2  constraint2_3932  1
    Z_393_4_3  OBJ       -5.8291467449434050e-03
    Z_393_4_3  constraint1_3934  1
    Z_393_4_3  constraint2_3933  1
    Z_393_4_4  OBJ       -7.7440754214577218e-02
    Z_393_4_4  constraint1_3934  1
    Z_393_3_0  OBJ       -5.3516670909655123e-04
    Z_393_3_0  constraint1_3933  1
    Z_393_3_0  constraint2_3930  1
    Z_393_3_1  OBJ       -4.8090106826875244e-03
    Z_393_3_1  constraint1_3933  1
    Z_393_3_1  constraint2_3931  1
    Z_393_3_2  OBJ       -2.1119591109904995e-01
    Z_393_3_2  constraint1_3933  1
    Z_393_3_2  constraint2_3932  1
    Z_393_3_3  OBJ       -1.5650345968944787e-01
    Z_393_3_3  constraint1_3933  1
    Z_393_3_3  constraint2_3933  1
    Z_393_3_4  OBJ       -5.2695645181971806e-01
    Z_393_3_4  constraint1_3933  1
    Z_393_2_0  OBJ       -2.0530915426757027e-04
    Z_393_2_0  constraint1_3932  1
    Z_393_2_0  constraint2_3930  1
    Z_393_2_1  OBJ       -9.5517517360745074e-04
    Z_393_2_1  constraint1_3932  1
    Z_393_2_1  constraint2_3931  1
    Z_393_2_2  OBJ       -1.0201485265374874e-01
    Z_393_2_2  constraint1_3932  1
    Z_393_2_2  constraint2_3932  1
    Z_393_2_3  OBJ       -1.3295271251596491e-02
    Z_393_2_3  constraint1_3932  1
    Z_393_2_3  constraint2_3933  1
    Z_393_2_4  OBJ       -7.8352939176677971e-01
    Z_393_2_4  constraint1_3932  1
    Z_393_1_0  OBJ       -9.3662490091831977e-03
    Z_393_1_0  constraint1_3931  1
    Z_393_1_0  constraint2_3930  1
    Z_393_1_1  OBJ       -6.7637623278713338e-03
    Z_393_1_1  constraint1_3931  1
    Z_393_1_1  constraint2_3931  1
    Z_393_1_2  OBJ       -9.1763419503708022e-03
    Z_393_1_2  constraint1_3931  1
    Z_393_1_2  constraint2_3932  1
    Z_393_1_3  OBJ       -3.5722813956550431e-03
    Z_393_1_3  constraint1_3931  1
    Z_393_1_3  constraint2_3933  1
    Z_393_1_4  OBJ       -8.7112136531691964e-01
    Z_393_1_4  constraint1_3931  1
    Z_393_0_0  OBJ       -9.8254917113363969e-04
    Z_393_0_0  constraint1_3930  1
    Z_393_0_0  constraint2_3930  1
    Z_393_0_1  OBJ       -2.5221866310135735e-03
    Z_393_0_1  constraint1_3930  1
    Z_393_0_1  constraint2_3931  1
    Z_393_0_2  OBJ       -6.5723382754794184e-03
    Z_393_0_2  constraint1_3930  1
    Z_393_0_2  constraint2_3932  1
    Z_393_0_3  OBJ       -2.4609536362755119e-01
    Z_393_0_3  constraint1_3930  1
    Z_393_0_3  constraint2_3933  1
    Z_393_0_4  OBJ       -6.4382756229482219e-01
    Z_393_0_4  constraint1_3930  1
    Z_393_5_0  OBJ       -1.4549694298636751e-02
    Z_393_5_0  constraint1_3935  1
    Z_393_5_0  constraint2_3930  1
    Z_393_5_1  OBJ       -1.9114327595338144e-02
    Z_393_5_1  constraint1_3935  1
    Z_393_5_1  constraint2_3931  1
    Z_393_5_2  OBJ       -1.9263218468586302e-03
    Z_393_5_2  constraint1_3935  1
    Z_393_5_2  constraint2_3932  1
    Z_393_5_3  OBJ       -2.0534012674948321e-01
    Z_393_5_3  constraint1_3935  1
    Z_393_5_3  constraint2_3933  1
    Z_393_5_4  OBJ       -6.5906952950968334e-01
    Z_393_5_4  constraint1_3935  1
    Z_393_6_0  OBJ       -9.8254917113363969e-04
    Z_393_6_0  constraint1_3936  1
    Z_393_6_0  constraint2_3930  1
    Z_393_6_1  OBJ       -2.5221866310135735e-03
    Z_393_6_1  constraint1_3936  1
    Z_393_6_1  constraint2_3931  1
    Z_393_6_2  OBJ       -6.5723382754794184e-03
    Z_393_6_2  constraint1_3936  1
    Z_393_6_2  constraint2_3932  1
    Z_393_6_3  OBJ       -2.4609536362755119e-01
    Z_393_6_3  constraint1_3936  1
    Z_393_6_3  constraint2_3933  1
    Z_393_6_4  OBJ       -6.4382756229482219e-01
    Z_393_6_4  constraint1_3936  1
    Z_609_0_0  OBJ       -8.2599799822609523e-05
    Z_609_0_0  constraint1_6090  1
    Z_609_0_0  constraint2_6090  1
    Z_609_0_1  OBJ       -6.8836069909737662e-03
    Z_609_0_1  constraint1_6090  1
    Z_609_0_1  constraint2_6091  1
    Z_609_0_2  OBJ       -7.5962174245394443e-01
    Z_609_0_2  constraint1_6090  1
    Z_609_0_2  constraint2_6092  1
    Z_609_0_3  OBJ       -2.5585368993020761e-03
    Z_609_0_3  constraint1_6090  1
    Z_609_0_3  constraint2_6093  1
    Z_609_0_4  OBJ       -1.3085351385595723e-01
    Z_609_0_4  constraint1_6090  1
    Z_463_0_0  OBJ       -1.4012980252581578e-04
    Z_463_0_0  constraint1_4630  1
    Z_463_0_0  constraint2_4630  1
    Z_463_0_1  OBJ       -2.2252641717514371e-03
    Z_463_0_1  constraint1_4630  1
    Z_463_0_1  constraint2_4631  1
    Z_463_0_2  OBJ       -7.5786142539988977e-01
    Z_463_0_2  constraint1_4630  1
    Z_463_0_2  constraint2_4632  1
    Z_463_0_3  OBJ       -2.4313676663621116e-03
    Z_463_0_3  constraint1_4630  1
    Z_463_0_3  constraint2_4633  1
    Z_463_0_4  OBJ       -1.3734181295947079e-01
    Z_463_0_4  constraint1_4630  1
    Z_275_0_0  OBJ       -1.0562121975359958e-04
    Z_275_0_0  constraint1_2750  1
    Z_275_0_0  constraint2_2750  1
    Z_275_0_1  OBJ       -1.8040096831364318e-03
    Z_275_0_1  constraint1_2750  1
    Z_275_0_1  constraint2_2751  1
    Z_275_0_2  OBJ       -4.9037377534710928e-02
    Z_275_0_2  constraint1_2750  1
    Z_275_0_2  constraint2_2752  1
    Z_275_0_3  OBJ       -8.3003694876046574e-01
    Z_275_0_3  constraint1_2750  1
    Z_275_0_3  constraint2_2753  1
    Z_275_0_4  OBJ       -1.9016042801933308e-02
    Z_275_0_4  constraint1_2750  1
    Z_738_0_0  OBJ       -1.0370951777508922e-01
    Z_738_0_0  constraint1_7380  1
    Z_738_0_0  constraint2_7380  1
    Z_738_0_1  OBJ       -5.7639428190865449e-01
    Z_738_0_1  constraint1_7380  1
    Z_738_0_1  constraint2_7381  1
    Z_738_0_2  OBJ       -4.3882662490290171e-03
    Z_738_0_2  constraint1_7380  1
    Z_738_0_2  constraint2_7382  1
    Z_738_0_3  OBJ       -1.0416752960080923e-01
    Z_738_0_3  constraint1_7380  1
    Z_738_0_3  constraint2_7383  1
    Z_738_0_4  OBJ       -1.1134040446641803e-01
    Z_738_0_4  constraint1_7380  1
    Z_481_0_0  OBJ       -8.7638364371999903e-03
    Z_481_0_0  constraint1_4810  1
    Z_481_0_0  constraint2_4810  1
    Z_481_0_1  OBJ       -2.8029460386001740e-02
    Z_481_0_1  constraint1_4810  1
    Z_481_0_1  constraint2_4811  1
    Z_481_0_2  OBJ       -9.1801658654092034e-04
    Z_481_0_2  constraint1_4810  1
    Z_481_0_2  constraint2_4812  1
    Z_481_0_3  OBJ       -5.1413962628287450e-02
    Z_481_0_3  constraint1_4810  1
    Z_481_0_3  constraint2_4813  1
    Z_481_0_4  OBJ       -8.1087472396196969e-01
    Z_481_0_4  constraint1_4810  1
    Z_66_0_0  OBJ       -8.3468046949864132e-03
    Z_66_0_0  constraint1_660  1
    Z_66_0_0  constraint2_660  1
    Z_66_0_1  OBJ       -7.1355549792531359e-01
    Z_66_0_1  constraint1_660  1
    Z_66_0_1  constraint2_661  1
    Z_66_0_2  OBJ       -1.8019133298111951e-03
    Z_66_0_2  constraint1_660  1
    Z_66_0_2  constraint2_662  1
    Z_66_0_3  OBJ       -8.8590845455459397e-03
    Z_66_0_3  constraint1_660  1
    Z_66_0_3  constraint2_663  1
    Z_66_0_4  OBJ       -1.6743669950434287e-01
    Z_66_0_4  constraint1_660  1
    Z_533_4_0  OBJ       -1.7181408981159565e-02
    Z_533_4_0  constraint1_5334  1
    Z_533_4_0  constraint2_5330  1
    Z_533_4_1  OBJ       -6.8137722997047828e-03
    Z_533_4_1  constraint1_5334  1
    Z_533_4_1  constraint2_5331  1
    Z_533_4_2  OBJ       -4.7483886213795963e-03
    Z_533_4_2  constraint1_5334  1
    Z_533_4_2  constraint2_5332  1
    Z_533_4_3  OBJ       -3.1797282562198902e-02
    Z_533_4_3  constraint1_5334  1
    Z_533_4_3  constraint2_5333  1
    Z_533_4_4  OBJ       -8.3945914753555717e-01
    Z_533_4_4  constraint1_5334  1
    Z_533_1_0  OBJ       -4.7765073700859586e-03
    Z_533_1_0  constraint1_5331  1
    Z_533_1_0  constraint2_5330  1
    Z_533_1_1  OBJ       -3.0533124606009023e-03
    Z_533_1_1  constraint1_5331  1
    Z_533_1_1  constraint2_5331  1
    Z_533_1_2  OBJ       -4.6421263264012615e-02
    Z_533_1_2  constraint1_5331  1
    Z_533_1_2  constraint2_5332  1
    Z_533_1_3  OBJ       -9.8582673432169761e-03
    Z_533_1_3  constraint1_5331  1
    Z_533_1_3  constraint2_5333  1
    Z_533_1_4  OBJ       -8.3589064956208359e-01
    Z_533_1_4  constraint1_5331  1
    Z_533_2_0  OBJ       -4.4493535172392530e-04
    Z_533_2_0  constraint1_5332  1
    Z_533_2_0  constraint2_5330  1
    Z_533_2_1  OBJ       -2.8836433685224688e-04
    Z_533_2_1  constraint1_5332  1
    Z_533_2_1  constraint2_5331  1
    Z_533_2_2  OBJ       -3.0743173739024455e-03
    Z_533_2_2  constraint1_5332  1
    Z_533_2_2  constraint2_5332  1
    Z_533_2_3  OBJ       -2.4789758996348506e-03
    Z_533_2_3  constraint1_5332  1
    Z_533_2_3  constraint2_5333  1
    Z_533_2_4  OBJ       -8.9371340703788638e-01
    Z_533_2_4  constraint1_5332  1
    Z_533_0_0  OBJ       -2.2328355085395816e-04
    Z_533_0_0  constraint1_5330  1
    Z_533_0_0  constraint2_5330  1
    Z_533_0_1  OBJ       -1.9222219602925512e-03
    Z_533_0_1  constraint1_5330  1
    Z_533_0_1  constraint2_5331  1
    Z_533_0_2  OBJ       -2.7679688048450252e-02
    Z_533_0_2  constraint1_5330  1
    Z_533_0_2  constraint2_5332  1
    Z_533_0_3  OBJ       -7.5335189432188765e-01
    Z_533_0_3  constraint1_5330  1
    Z_533_0_3  constraint2_5333  1
    Z_533_0_4  OBJ       -1.1682291211851560e-01
    Z_533_0_4  constraint1_5330  1
    Z_533_5_0  OBJ       -4.4104412640029303e-02
    Z_533_5_0  constraint1_5335  1
    Z_533_5_0  constraint2_5330  1
    Z_533_5_1  OBJ       -1.8791708783483716e-02
    Z_533_5_1  constraint1_5335  1
    Z_533_5_1  constraint2_5331  1
    Z_533_5_2  OBJ       -8.0340014235096048e-03
    Z_533_5_2  constraint1_5335  1
    Z_533_5_2  constraint2_5332  1
    Z_533_5_3  OBJ       -1.7458824043459231e-02
    Z_533_5_3  constraint1_5335  1
    Z_533_5_3  constraint2_5333  1
    Z_533_5_4  OBJ       -8.1161105310951820e-01
    Z_533_5_4  constraint1_5335  1
    Z_533_3_0  OBJ       -2.2328355085395816e-04
    Z_533_3_0  constraint1_5333  1
    Z_533_3_0  constraint2_5330  1
    Z_533_3_1  OBJ       -1.9222219602925512e-03
    Z_533_3_1  constraint1_5333  1
    Z_533_3_1  constraint2_5331  1
    Z_533_3_2  OBJ       -2.7679688048450252e-02
    Z_533_3_2  constraint1_5333  1
    Z_533_3_2  constraint2_5332  1
    Z_533_3_3  OBJ       -7.5335189432188765e-01
    Z_533_3_3  constraint1_5333  1
    Z_533_3_3  constraint2_5333  1
    Z_533_3_4  OBJ       -1.1682291211851560e-01
    Z_533_3_4  constraint1_5333  1
    Z_533_6_0  OBJ       -2.2328355085395816e-04
    Z_533_6_0  constraint1_5336  1
    Z_533_6_0  constraint2_5330  1
    Z_533_6_1  OBJ       -1.9222219602925512e-03
    Z_533_6_1  constraint1_5336  1
    Z_533_6_1  constraint2_5331  1
    Z_533_6_2  OBJ       -2.7679688048450252e-02
    Z_533_6_2  constraint1_5336  1
    Z_533_6_2  constraint2_5332  1
    Z_533_6_3  OBJ       -7.5335189432188765e-01
    Z_533_6_3  constraint1_5336  1
    Z_533_6_3  constraint2_5333  1
    Z_533_6_4  OBJ       -1.1682291211851560e-01
    Z_533_6_4  constraint1_5336  1
    MARKER    'MARKER'                 'INTEND'
RHS
    RHS1      constraint1_1969  1
    RHS1      constraint1_1964  1
    RHS1      constraint1_1962  1
    RHS1      constraint1_1967  1
    RHS1      constraint1_1961  1
    RHS1      constraint1_1963  1
    RHS1      constraint1_1965  1
    RHS1      constraint1_1968  1
    RHS1      constraint1_1966  1
    RHS1      constraint1_2080  1
    RHS1      constraint1_2691  1
    RHS1      constraint1_2692  1
    RHS1      constraint1_2690  1
    RHS1      constraint1_4551  1
    RHS1      constraint1_4550  1
    RHS1      constraint1_5550  1
    RHS1      constraint1_1790  1
    RHS1      constraint1_2280  1
    RHS1      constraint1_5010  1
    RHS1      constraint1_3934  1
    RHS1      constraint1_3933  1
    RHS1      constraint1_3932  1
    RHS1      constraint1_3931  1
    RHS1      constraint1_3930  1
    RHS1      constraint1_3935  1
    RHS1      constraint1_3936  1
    RHS1      constraint1_6090  1
    RHS1      constraint1_4630  1
    RHS1      constraint1_2750  1
    RHS1      constraint1_7380  1
    RHS1      constraint1_4810  1
    RHS1      constraint1_660  1
    RHS1      constraint1_5334  1
    RHS1      constraint1_5331  1
    RHS1      constraint1_5332  1
    RHS1      constraint1_5330  1
    RHS1      constraint1_5335  1
    RHS1      constraint1_5333  1
    RHS1      constraint1_5336  1
    RHS1      constraint2_1960  1
    RHS1      constraint2_1961  1
    RHS1      constraint2_1962  1
    RHS1      constraint2_1963  1
    RHS1      constraint2_2080  1
    RHS1      constraint2_2081  1
    RHS1      constraint2_2082  1
    RHS1      constraint2_2083  1
    RHS1      constraint2_2690  1
    RHS1      constraint2_2691  1
    RHS1      constraint2_2692  1
    RHS1      constraint2_2693  1
    RHS1      constraint2_3950  1
    RHS1      constraint2_3951  1
    RHS1      constraint2_3952  1
    RHS1      constraint2_3953  1
    RHS1      constraint2_840  1
    RHS1      constraint2_841  1
    RHS1      constraint2_842  1
    RHS1      constraint2_843  1
    RHS1      constraint2_3260  1
    RHS1      constraint2_3261  1
    RHS1      constraint2_3262  1
    RHS1      constraint2_3263  1
    RHS1      constraint2_4550  1
    RHS1      constraint2_4551  1
    RHS1      constraint2_4552  1
    RHS1      constraint2_4553  1
    RHS1      constraint2_5550  1
    RHS1      constraint2_5551  1
    RHS1      constraint2_5552  1
    RHS1      constraint2_5553  1
    RHS1      constraint2_1790  1
    RHS1      constraint2_1791  1
    RHS1      constraint2_1792  1
    RHS1      constraint2_1793  1
    RHS1      constraint2_920  1
    RHS1      constraint2_921  1
    RHS1      constraint2_922  1
    RHS1      constraint2_923  1
    RHS1      constraint2_2280  1
    RHS1      constraint2_2281  1
    RHS1      constraint2_2282  1
    RHS1      constraint2_2283  1
    RHS1      constraint2_5010  1
    RHS1      constraint2_5011  1
    RHS1      constraint2_5012  1
    RHS1      constraint2_5013  1
    RHS1      constraint2_3930  1
    RHS1      constraint2_3931  1
    RHS1      constraint2_3932  1
    RHS1      constraint2_3933  1
    RHS1      constraint2_6090  1
    RHS1      constraint2_6091  1
    RHS1      constraint2_6092  1
    RHS1      constraint2_6093  1
    RHS1      constraint2_4630  1
    RHS1      constraint2_4631  1
    RHS1      constraint2_4632  1
    RHS1      constraint2_4633  1
    RHS1      constraint2_2750  1
    RHS1      constraint2_2751  1
    RHS1      constraint2_2752  1
    RHS1      constraint2_2753  1
    RHS1      constraint2_7380  1
    RHS1      constraint2_7381  1
    RHS1      constraint2_7382  1
    RHS1      constraint2_7383  1
    RHS1      constraint2_4810  1
    RHS1      constraint2_4811  1
    RHS1      constraint2_4812  1
    RHS1      constraint2_4813  1
    RHS1      constraint2_660  1
    RHS1      constraint2_661  1
    RHS1      constraint2_662  1
    RHS1      constraint2_663  1
    RHS1      constraint2_5330  1
    RHS1      constraint2_5331  1
    RHS1      constraint2_5332  1
    RHS1      constraint2_5333  1
BOUNDS
 UP BND1      Z_196_9_0  1
 UP BND1      Z_196_9_1  1
 UP BND1      Z_196_9_2  1
 UP BND1      Z_196_9_3  1
 UP BND1      Z_196_9_4  1
 UP BND1      Z_196_4_0  1
 UP BND1      Z_196_4_1  1
 UP BND1      Z_196_4_2  1
 UP BND1      Z_196_4_3  1
 UP BND1      Z_196_4_4  1
 UP BND1      Z_196_2_0  1
 UP BND1      Z_196_2_1  1
 UP BND1      Z_196_2_2  1
 UP BND1      Z_196_2_3  1
 UP BND1      Z_196_2_4  1
 UP BND1      Z_196_7_0  1
 UP BND1      Z_196_7_1  1
 UP BND1      Z_196_7_2  1
 UP BND1      Z_196_7_3  1
 UP BND1      Z_196_7_4  1
 UP BND1      Z_196_1_0  1
 UP BND1      Z_196_1_1  1
 UP BND1      Z_196_1_2  1
 UP BND1      Z_196_1_3  1
 UP BND1      Z_196_1_4  1
 UP BND1      Z_196_3_0  1
 UP BND1      Z_196_3_1  1
 UP BND1      Z_196_3_2  1
 UP BND1      Z_196_3_3  1
 UP BND1      Z_196_3_4  1
 UP BND1      Z_196_5_0  1
 UP BND1      Z_196_5_1  1
 UP BND1      Z_196_5_2  1
 UP BND1      Z_196_5_3  1
 UP BND1      Z_196_5_4  1
 UP BND1      Z_196_8_0  1
 UP BND1      Z_196_8_1  1
 UP BND1      Z_196_8_2  1
 UP BND1      Z_196_8_3  1
 UP BND1      Z_196_8_4  1
 UP BND1      Z_196_6_0  1
 UP BND1      Z_196_6_1  1
 UP BND1      Z_196_6_2  1
 UP BND1      Z_196_6_3  1
 UP BND1      Z_196_6_4  1
 UP BND1      Z_208_0_0  1
 UP BND1      Z_208_0_1  1
 UP BND1      Z_208_0_2  1
 UP BND1      Z_208_0_3  1
 UP BND1      Z_208_0_4  1
 UP BND1      Z_269_1_0  1
 UP BND1      Z_269_1_1  1
 UP BND1      Z_269_1_2  1
 UP BND1      Z_269_1_3  1
 UP BND1      Z_269_1_4  1
 UP BND1      Z_269_2_0  1
 UP BND1      Z_269_2_1  1
 UP BND1      Z_269_2_2  1
 UP BND1      Z_269_2_3  1
 UP BND1      Z_269_2_4  1
 UP BND1      Z_269_0_0  1
 UP BND1      Z_269_0_1  1
 UP BND1      Z_269_0_2  1
 UP BND1      Z_269_0_3  1
 UP BND1      Z_269_0_4  1
 UP BND1      Z_455_1_0  1
 UP BND1      Z_455_1_1  1
 UP BND1      Z_455_1_2  1
 UP BND1      Z_455_1_3  1
 UP BND1      Z_455_1_4  1
 UP BND1      Z_455_0_0  1
 UP BND1      Z_455_0_1  1
 UP BND1      Z_455_0_2  1
 UP BND1      Z_455_0_3  1
 UP BND1      Z_455_0_4  1
 UP BND1      Z_555_0_0  1
 UP BND1      Z_555_0_1  1
 UP BND1      Z_555_0_2  1
 UP BND1      Z_555_0_3  1
 UP BND1      Z_555_0_4  1
 UP BND1      Z_179_0_0  1
 UP BND1      Z_179_0_1  1
 UP BND1      Z_179_0_2  1
 UP BND1      Z_179_0_3  1
 UP BND1      Z_179_0_4  1
 UP BND1      Z_228_0_0  1
 UP BND1      Z_228_0_1  1
 UP BND1      Z_228_0_2  1
 UP BND1      Z_228_0_3  1
 UP BND1      Z_228_0_4  1
 UP BND1      Z_501_0_0  1
 UP BND1      Z_501_0_1  1
 UP BND1      Z_501_0_2  1
 UP BND1      Z_501_0_3  1
 UP BND1      Z_501_0_4  1
 UP BND1      Z_393_4_0  1
 UP BND1      Z_393_4_1  1
 UP BND1      Z_393_4_2  1
 UP BND1      Z_393_4_3  1
 UP BND1      Z_393_4_4  1
 UP BND1      Z_393_3_0  1
 UP BND1      Z_393_3_1  1
 UP BND1      Z_393_3_2  1
 UP BND1      Z_393_3_3  1
 UP BND1      Z_393_3_4  1
 UP BND1      Z_393_2_0  1
 UP BND1      Z_393_2_1  1
 UP BND1      Z_393_2_2  1
 UP BND1      Z_393_2_3  1
 UP BND1      Z_393_2_4  1
 UP BND1      Z_393_1_0  1
 UP BND1      Z_393_1_1  1
 UP BND1      Z_393_1_2  1
 UP BND1      Z_393_1_3  1
 UP BND1      Z_393_1_4  1
 UP BND1      Z_393_0_0  1
 UP BND1      Z_393_0_1  1
 UP BND1      Z_393_0_2  1
 UP BND1      Z_393_0_3  1
 UP BND1      Z_393_0_4  1
 UP BND1      Z_393_5_0  1
 UP BND1      Z_393_5_1  1
 UP BND1      Z_393_5_2  1
 UP BND1      Z_393_5_3  1
 UP BND1      Z_393_5_4  1
 UP BND1      Z_393_6_0  1
 UP BND1      Z_393_6_1  1
 UP BND1      Z_393_6_2  1
 UP BND1      Z_393_6_3  1
 UP BND1      Z_393_6_4  1
 UP BND1      Z_609_0_0  1
 UP BND1      Z_609_0_1  1
 UP BND1      Z_609_0_2  1
 UP BND1      Z_609_0_3  1
 UP BND1      Z_609_0_4  1
 UP BND1      Z_463_0_0  1
 UP BND1      Z_463_0_1  1
 UP BND1      Z_463_0_2  1
 UP BND1      Z_463_0_3  1
 UP BND1      Z_463_0_4  1
 UP BND1      Z_275_0_0  1
 UP BND1      Z_275_0_1  1
 UP BND1      Z_275_0_2  1
 UP BND1      Z_275_0_3  1
 UP BND1      Z_275_0_4  1
 UP BND1      Z_738_0_0  1
 UP BND1      Z_738_0_1  1
 UP BND1      Z_738_0_2  1
 UP BND1      Z_738_0_3  1
 UP BND1      Z_738_0_4  1
 UP BND1      Z_481_0_0  1
 UP BND1      Z_481_0_1  1
 UP BND1      Z_481_0_2  1
 UP BND1      Z_481_0_3  1
 UP BND1      Z_481_0_4  1
 UP BND1      Z_66_0_0  1
 UP BND1      Z_66_0_1  1
 UP BND1      Z_66_0_2  1
 UP BND1      Z_66_0_3  1
 UP BND1      Z_66_0_4  1
 UP BND1      Z_533_4_0  1
 UP BND1      Z_533_4_1  1
 UP BND1      Z_533_4_2  1
 UP BND1      Z_533_4_3  1
 UP BND1      Z_533_4_4  1
 UP BND1      Z_533_1_0  1
 UP BND1      Z_533_1_1  1
 UP BND1      Z_533_1_2  1
 UP BND1      Z_533_1_3  1
 UP BND1      Z_533_1_4  1
 UP BND1      Z_533_2_0  1
 UP BND1      Z_533_2_1  1
 UP BND1      Z_533_2_2  1
 UP BND1      Z_533_2_3  1
 UP BND1      Z_533_2_4  1
 UP BND1      Z_533_0_0  1
 UP BND1      Z_533_0_1  1
 UP BND1      Z_533_0_2  1
 UP BND1      Z_533_0_3  1
 UP BND1      Z_533_0_4  1
 UP BND1      Z_533_5_0  1
 UP BND1      Z_533_5_1  1
 UP BND1      Z_533_5_2  1
 UP BND1      Z_533_5_3  1
 UP BND1      Z_533_5_4  1
 UP BND1      Z_533_3_0  1
 UP BND1      Z_533_3_1  1
 UP BND1      Z_533_3_2  1
 UP BND1      Z_533_3_3  1
 UP BND1      Z_533_3_4  1
 UP BND1      Z_533_6_0  1
 UP BND1      Z_533_6_1  1
 UP BND1      Z_533_6_2  1
 UP BND1      Z_533_6_3  1
 UP BND1      Z_533_6_4  1
ENDATA
